fe152469a1624401b79c8a528ebe1b5b-pulp.mps
*SENSE:Minimize
NAME          MODEL
ROWS
 N  OBJ
 G  C0000000
 G  C0000001
 G  C0000002
 G  C0000003
 G  C0000004
 G  C0000005
 G  C0000006
 G  C0000007
 G  C0000008
 G  C0000009
 G  C0000010
 G  C0000011
 G  C0000012
 G  C0000013
 G  C0000014
 G  C0000015
 G  C0000016
COLUMNS
    X0000000  C0000000   1.425010000000e+03
    X0000000  OBJ        1.425010000000e+03
    X0000001  C0000001   1.200000000000e+02
    X0000001  OBJ        1.200000000000e+02
    X0000002  C0000002   1.134400000000e+02
    X0000002  OBJ        1.134400000000e+02
    X0000003  C0000003   1.050500000000e+02
    X0000003  OBJ        1.050500000000e+02
    X0000004  C0000004   1.193000000000e+02
    X0000004  OBJ        1.193000000000e+02
    X0000005  C0000005   9.329000000000e+01
    X0000005  OBJ        9.329000000000e+01
    X0000006  C0000006   1.396700000000e+02
    X0000006  OBJ        1.396700000000e+02
    X0000007  C0000007   8.736000000000e+01
    X0000007  OBJ        8.736000000000e+01
    X0000008  C0000008   1.058800000000e+02
    X0000008  OBJ        1.058800000000e+02
    X0000009  C0000009   1.527700000000e+02
    X0000009  OBJ        1.527700000000e+02
    X0000010  C0000010   1.730000000000e+02
    X0000010  OBJ        1.730000000000e+02
    X0000011  C0000011   2.549900000000e+02
    X0000011  OBJ        2.549900000000e+02
    X0000012  C0000012   1.115500000000e+02
    X0000012  OBJ        1.115500000000e+02
    X0000013  C0000013   1.050000000000e+02
    X0000013  OBJ        1.050000000000e+02
    X0000014  C0000014   1.505000000000e+02
    X0000014  OBJ        1.505000000000e+02
    X0000015  C0000015   1.150000000000e+02
    X0000015  OBJ        1.150000000000e+02
    X0000016  C0000016   1.030000000000e+02
    X0000016  OBJ        1.030000000000e+02
RHS
    RHS       C0000000   1.476424510839e-01
    RHS       C0000001   1.612878821219e-01
    RHS       C0000002   2.456717306290e-04
    RHS       C0000003   9.019489545716e-02
    RHS       C0000004   1.294243674405e-01
    RHS       C0000005   6.763499659558e-03
    RHS       C0000006   1.460291773391e-02
    RHS       C0000007   1.580286051954e-02
    RHS       C0000008   5.249223939743e-03
    RHS       C0000009   1.142209296842e-02
    RHS       C0000010   6.915191951645e-02
    RHS       C0000011   1.464510736041e-01
    RHS       C0000012   1.532258193720e-02
    RHS       C0000013   1.175889497937e-01
    RHS       C0000014   8.110389042363e-03
    RHS       C0000015   3.438437759514e-02
    RHS       C0000016   2.635484585590e-02
BOUNDS
ENDATA
