fe152469a1624401b79c8a528ebe1b5b-pulp.sol
Optimal - objective value 1.00000000
      0 C0000000      0.14764245                       1
      1 C0000001      0.16128788                       1
      2 C0000002   0.00024567173                       1
      3 C0000003     0.090194895                       1
      4 C0000004      0.12942437                       1
      5 C0000005    0.0067634997                       1
      6 C0000006     0.014602918                       1
      7 C0000007     0.015802861                       1
      8 C0000008    0.0052492239                       1
      9 C0000009     0.011422093                       1
     10 C0000010      0.06915192                       1
     11 C0000011      0.14645107                       1
     12 C0000012     0.015322582                       1
     13 C0000013      0.11758895                       1
     14 C0000014     0.008110389                       1
     15 C0000015     0.034384378                       1
     16 C0000016     0.026354846                       1
      0 X0000000   0.00010360801                       0
      1 X0000001    0.0013440657                       0
      2 X0000002  2.1656535e-006                       0
      3 X0000003   0.00085859015                       0
      4 X0000004    0.0010848648                       0
      5 X0000005  7.2499728e-005                       0
      6 X0000006     0.000104553                       0
      7 X0000007   0.00018089355                       0
      8 X0000008  4.9577106e-005                       0
      9 X0000009  7.4766597e-005                       0
     10 X0000010   0.00039972208                       0
     11 X0000011   0.00057434046                       0
     12 X0000012   0.00013736066                       0
     13 X0000013    0.0011198948                       0
     14 X0000014  5.3889628e-005                       0
     15 X0000015   0.00029899459                       0
     16 X0000016   0.00025587229                       0
